solution status: time limit reached
objective value:                                  -96
x31                                                 1 	(obj:-1)
x35                                                 1 	(obj:-1)
x62                                                 1 	(obj:-1)
x75                                                 1 	(obj:-1)
x80                                                 1 	(obj:-1)
x104                                                1 	(obj:-1)
x157                                                1 	(obj:-1)
x166                                                1 	(obj:-1)
x194                                                1 	(obj:-1)
x210                                                1 	(obj:-1)
x235                                                1 	(obj:-1)
x250                                                1 	(obj:-1)
x264                                                1 	(obj:-1)
x297                                                1 	(obj:-1)
x365                                                1 	(obj:-1)
x381                                                1 	(obj:-1)
x399                                                1 	(obj:-1)
x403                                                1 	(obj:-1)
x418                                                1 	(obj:-1)
x432                                                1 	(obj:-1)
x458                                                1 	(obj:-1)
x492                                                1 	(obj:-1)
x506                                                1 	(obj:-1)
x517                                                1 	(obj:-1)
x531                                                1 	(obj:-1)
x553                                                1 	(obj:-1)
x570                                                1 	(obj:-1)
x590                                                1 	(obj:-1)
x616                                                1 	(obj:-1)
x633                                                1 	(obj:-1)
x664                                                1 	(obj:-1)
x683                                                1 	(obj:-1)
x702                                                1 	(obj:-1)
x714                                                1 	(obj:-1)
x728                                                1 	(obj:-1)
x745                                                1 	(obj:-1)
x757                                                1 	(obj:-1)
x771                                                1 	(obj:-1)
x811                                                1 	(obj:-1)
x831                                                1 	(obj:-1)
x851                                                1 	(obj:-1)
x879                                                1 	(obj:-1)
x885                                                1 	(obj:-1)
x914                                                1 	(obj:-1)
x928                                                1 	(obj:-1)
x993                                                1 	(obj:-1)
x1008                                               1 	(obj:-1)
x1039                                               1 	(obj:-1)
x1080                                               1 	(obj:-1)
x1102                                               1 	(obj:-1)
x1135                                               1 	(obj:-1)
x1139                                               1 	(obj:-1)
x1178                                               1 	(obj:-1)
x1209                                               1 	(obj:-1)
x1219                                               1 	(obj:-1)
x1246                                               1 	(obj:-1)
x1251                                               1 	(obj:-1)
x1283                                               1 	(obj:-1)
x1307                                               1 	(obj:-1)
x1327                                               1 	(obj:-1)
x1328                                               1 	(obj:-1)
x1359                                               1 	(obj:-1)
x1369                                               1 	(obj:-1)
x1397                                               1 	(obj:-1)
x1416                                               1 	(obj:-1)
x1429                                               1 	(obj:-1)
x1444                                               1 	(obj:-1)
x1464                                               1 	(obj:-1)
x1480                                               1 	(obj:-1)
x1488                                               1 	(obj:-1)
x1516                                               1 	(obj:-1)
x1548                                               1 	(obj:-1)
x1563                                               1 	(obj:-1)
x1570                                               1 	(obj:-1)
x1597                                               1 	(obj:-1)
x1630                                               1 	(obj:-1)
x1643                                               1 	(obj:-1)
x1650                                               1 	(obj:-1)
x1675                                               1 	(obj:-1)
x1694                                               1 	(obj:-1)
x1710                                               1 	(obj:-1)
x1740                                               1 	(obj:-1)
x1762                                               1 	(obj:-1)
x1788                                               1 	(obj:-1)
x1829                                               1 	(obj:-1)
x1869                                               1 	(obj:-1)
x1882                                               1 	(obj:-1)
x1897                                               1 	(obj:-1)
x1919                                               1 	(obj:-1)
x1931                                               1 	(obj:-1)
x1954                                               1 	(obj:-1)
x1970                                               1 	(obj:-1)
x1997                                               1 	(obj:-1)
x2005                                               1 	(obj:-1)
x2025                                               1 	(obj:-1)
x2032                                               1 	(obj:-1)
x2058                                               1 	(obj:0)
x2067                                               1 	(obj:0)
x2104                                               1 	(obj:0)
x2126                                               1 	(obj:0)
x2143                                               1 	(obj:0)
x2152                                               1 	(obj:0)
x2163                                               1 	(obj:0)
x2184                                               1 	(obj:0)
x2207                                               1 	(obj:0)
x2223                                               1 	(obj:0)
x2238                                               1 	(obj:0)
x2248                                               1 	(obj:0)
x2256                                               1 	(obj:0)
x2274                                               1 	(obj:0)
x2294                                               1 	(obj:0)
x2319                                               1 	(obj:0)
x2322                                               1 	(obj:0)
x2337                                               1 	(obj:0)
x2354                                               1 	(obj:0)
x2368                                               1 	(obj:0)
x2389                                               1 	(obj:0)
x2415                                               1 	(obj:0)
x2427                                               1 	(obj:0)
x2447                                               1 	(obj:0)
x2457                                               1 	(obj:0)
x2472                                               1 	(obj:0)
x2482                                               1 	(obj:0)
x2501                                               1 	(obj:0)
x2521                                               1 	(obj:0)
x2543                                               1 	(obj:0)
x2556                                               1 	(obj:0)
x2569                                               1 	(obj:0)
x2579                                               1 	(obj:0)
x2606                                               1 	(obj:0)
x2617                                               1 	(obj:0)
x2632                                               1 	(obj:0)
x2653                                               1 	(obj:0)
x2669                                               1 	(obj:0)
x2687                                               1 	(obj:0)
x2698                                               1 	(obj:0)
x2715                                               1 	(obj:0)
x2723                                               1 	(obj:0)
x2739                                               1 	(obj:0)
x2763                                               1 	(obj:0)
x2768                                               1 	(obj:0)
x2795                                               1 	(obj:0)
x2812                                               1 	(obj:0)
x2826                                               1 	(obj:0)
x2835                                               1 	(obj:0)
x2850                                               1 	(obj:0)
x2878                                               1 	(obj:0)
x2904                                               1 	(obj:0)
x2924                                               1 	(obj:0)
x2938                                               1 	(obj:0)
x2955                                               1 	(obj:0)
x2970                                               1 	(obj:0)
x2987                                               1 	(obj:0)
x3000                                               1 	(obj:0)
x3013                                               1 	(obj:0)
x3027                                               1 	(obj:0)
x3042                                               1 	(obj:0)
x3059                                               1 	(obj:0)
x3080                                               1 	(obj:0)
x3102                                               1 	(obj:0)
x3115                                               1 	(obj:0)
x3135                                               1 	(obj:0)
x3148                                               1 	(obj:0)
x3162                                               1 	(obj:0)
x3183                                               1 	(obj:0)
x3184                                               1 	(obj:0)
x3213                                               1 	(obj:0)
x3229                                               1 	(obj:0)
x3237                                               1 	(obj:0)
x3248                                               1 	(obj:0)
x3278                                               1 	(obj:0)
x3295                                               1 	(obj:0)
x3310                                               1 	(obj:0)
x3323                                               1 	(obj:0)
x3337                                               1 	(obj:0)
x3355                                               1 	(obj:0)
x3370                                               1 	(obj:0)
x3384                                               1 	(obj:0)
x3400                                               1 	(obj:0)
x3417                                               1 	(obj:0)
x3428                                               1 	(obj:0)
x3445                                               1 	(obj:0)
x3456                                               1 	(obj:0)
